\ Model subproblem
\ LP format - for model browsing. Use MPS format to capture full model detail.
Minimize
  - w[0] - w[1] - w[2]
Subject To
 R0: 10 w[0] + 11 w[1] + 19 w[2] <= 80
Bounds
Generals
 w[0] w[1] w[2]
End
